PARAMETER_FILE = even/LKH_uncomplete_graph/x5/de/par/random172.par
PROBLEM_FILE = even/LKH_uncomplete_graph/x5/de/mat/random172.tsp
Successes/Runs = 0/10
Cost.min = 972, Cost.avg = 972.00, Cost.max = 972
Gap.min = 0.0000%, Gap.avg = 0.0000%, Gap.max = 0.0000%
Trials.min = 1000, Trials.avg = 1000.0, Trials.max = 1000
Time.min = 2.33 sec., Time.avg = 3.33 sec., Time.max = 5.20 sec.
Time.total = 33.40 sec.
请按任意键继续. . . 
